\* Investimento_Mínimo *\
Minimize
OBJ: 13.71 ABEV3 + 10.25 CMIG4 + 17.65 CSNA3 + 74.86 VALE3 + 2.61 VIIA3
Subject To
_C1: 13.71 ABEV3 >= 46.2
_C10: CMIG4 >= 1882869.8074
_C2: 17.65 CSNA3 >= 34
_C3: 74.86 VALE3 >= 115
_C4: 2.61 VIIA3 >= 60
_C5: 10.25 CMIG4 >= 45
_C6: ABEV3 >= 1624107.80631
_C7: CSNA3 >= 320914.606629
_C8: VALE3 >= 3403983.2524
_C9: VIIA3 >= 2136086.5115
End
